(set-logic UF)
(declare-sort Set 0)
(declare-sort Elem 0)
(declare-fun member (Elem Set) Bool)
(declare-fun subset (Set Set) Bool)
(declare-fun seteq (Set Set) Bool)
(declare-fun union (Set Set) Set)
(declare-fun intersection (Set Set) Set)
(declare-fun difference (Set Set) Set)
(declare-fun a () Set)
(declare-fun b () Set)
(declare-fun c () Set)
(assert (not (not (or (subset (union (difference c a) (difference c b)) (difference c (intersection a b))) (not (forall ((?x Elem)) (or (not (member ?x (union (difference c a) (difference c b)))) (member ?x (difference c (intersection a b))))))))))
(assert (not (subset (union (difference c a) (difference c b)) (difference c (intersection a b)))))
(assert (not (not (forall ((?x Elem)) (or (not (member ?x (union (difference c a) (difference c b)))) (member ?x (difference c (intersection a b))))))))
(check-sat)
(exit)
